p cnf 506 1982
46 -16 32 0
4 -7 33 0
-8 -21 6 0
2 -37 19 0
43 -16 20 0
49 -30 11 0
-46 -40 49 0
-30 13 -20 0
-33 -13 25 0
-44 -24 -6 0
23 26 15 0
-17 44 -28 0
34 1 -14 0
15 45 4 0
13 36 -49 0
-31 -1 14 0
46 -38 32 0
-27 28 40 0
6 3 -50 0
-14 29 -2 0
49 -4 24 0
-2 -22 10 0
17 39 -15 0
-22 39 -32 0
6 -49 -9 0
-27 35 39 0
-10 -7 -49 0
-36 21 7 0
-3 -12 -44 0
25 -46 30 0
27 -6 40 0
-35 7 -32 0
-35 -25 -40 0
31 33 25 0
-14 49 -6 0
7 3 -6 0
15 -39 -23 0
1 28 -41 0
17 6 48 0
-35 -17 -34 0
22 -4 16 0
45 -34 -11 0
47 -1 25 0
42 -22 32 0
-39 -8 -43 0
5 27 36 0
40 -31 8 0
-9 18 27 0
15 -17 18 0
27 -6 36 0
26 9 46 0
39 3 14 0
46 9 39 0
-9 21 -5 0
-8 -43 -4 0
50 -42 -37 0
33 -46 -21 0
-10 4 -24 0
-36 -35 30 0
-34 33 -49 0
35 50 -31 0
-50 -25 24 0
-32 36 16 0
5 -49 37 0
-38 35 16 0
-37 -1 48 0
-17 46 -39 0
-40 -16 -29 0
-14 -43 45 0
35 -34 -4 0
-9 43 -5 0
-41 -4 -46 0
26 31 40 0
35 -48 -46 0
-26 8 -46 0
-39 7 -21 0
-25 20 -34 0
14 45 9 0
-32 -4 11 0
-46 9 25 0
6 -49 37 0
-17 16 -9 0
-1 -19 25 0
33 43 -27 0
-31 23 -8 0
33 32 43 0
20 35 -30 0
22 -41 -36 0
1 -50 48 0
24 -22 38 0
-39 -13 -34 0
-25 1 31 0
35 42 -21 0
17 13 -41 0
-46 -14 30 0
1 16 -31 0
8 48 -6 0
10 -33 -39 0
-17 -47 26 0
24 -18 14 0
1 3 51 0
-1 3 -51 0
1 -3 -51 0
-1 -3 51 0
4 6 52 0
-4 6 -52 0
4 -6 -52 0
-4 -6 52 0
-11 -14 53 0
11 -14 -53 0
-11 14 -53 0
11 14 53 0
15 -18 54 0
-15 -18 -54 0
15 18 -54 0
-15 18 54 0
20 -23 55 0
-20 -23 -55 0
20 23 -55 0
-20 23 55 0
26 -29 56 0
-26 -29 -56 0
26 29 -56 0
-26 29 56 0
30 -31 57 0
-30 -31 -57 0
30 31 -57 0
-30 31 57 0
32 -34 58 0
-32 -34 -58 0
32 34 -58 0
-32 34 58 0
-38 41 59 0
38 41 -59 0
-38 -41 -59 0
38 -41 59 0
-42 44 60 0
42 44 -60 0
-42 -44 -60 0
42 -44 60 0
50 -51 61 0
-50 -51 -61 0
50 51 -61 0
-50 51 61 0
52 -53 62 0
-52 -53 -62 0
52 53 -62 0
-52 53 62 0
54 -55 63 0
-54 -55 -63 0
54 55 -63 0
-54 55 63 0
56 -57 64 0
-56 -57 -64 0
56 57 -64 0
-56 57 64 0
58 -59 65 0
-58 -59 -65 0
58 59 -65 0
-58 59 65 0
60 -61 66 0
-60 -61 -66 0
60 61 -66 0
-60 61 66 0
62 -63 67 0
-62 -63 -67 0
62 63 -67 0
-62 63 67 0
64 -65 68 0
-64 -65 -68 0
64 65 -68 0
-64 65 68 0
-66 -67 68 0
66 -67 -68 0
-66 67 -68 0
66 67 68 0
-1 4 69 0
1 4 -69 0
-1 -4 -69 0
1 -4 69 0
5 6 70 0
-5 6 -70 0
5 -6 -70 0
-5 -6 70 0
-7 -8 71 0
7 -8 -71 0
-7 8 -71 0
7 8 71 0
-9 10 72 0
9 10 -72 0
-9 -10 -72 0
9 -10 72 0
-14 -15 73 0
14 -15 -73 0
-14 15 -73 0
14 15 73 0
-17 19 74 0
17 19 -74 0
-17 -19 -74 0
17 -19 74 0
-23 -25 75 0
23 -25 -75 0
-23 25 -75 0
23 25 75 0
26 27 76 0
-26 27 -76 0
26 -27 -76 0
-26 -27 76 0
-28 -29 77 0
28 -29 -77 0
-28 29 -77 0
28 29 77 0
30 32 78 0
-30 32 -78 0
30 -32 -78 0
-30 -32 78 0
-34 -37 79 0
34 -37 -79 0
-34 37 -79 0
34 37 79 0
38 43 80 0
-38 43 -80 0
38 -43 -80 0
-38 -43 80 0
-44 45 81 0
44 45 -81 0
-44 -45 -81 0
44 -45 81 0
69 -70 82 0
-69 -70 -82 0
69 70 -82 0
-69 70 82 0
71 -72 83 0
-71 -72 -83 0
71 72 -83 0
-71 72 83 0
73 -74 84 0
-73 -74 -84 0
73 74 -84 0
-73 74 84 0
75 -76 85 0
-75 -76 -85 0
75 76 -85 0
-75 76 85 0
77 -78 86 0
-77 -78 -86 0
77 78 -86 0
-77 78 86 0
79 -80 87 0
-79 -80 -87 0
79 80 -87 0
-79 80 87 0
81 -82 88 0
-81 -82 -88 0
81 82 -88 0
-81 82 88 0
83 -84 89 0
-83 -84 -89 0
83 84 -89 0
-83 84 89 0
85 -86 90 0
-85 -86 -90 0
85 86 -90 0
-85 86 90 0
87 -88 91 0
-87 -88 -91 0
87 88 -91 0
-87 88 91 0
89 -90 92 0
-89 -90 -92 0
89 90 -92 0
-89 90 92 0
91 92 0
-91 -92 0
8 9 93 0
-8 9 -93 0
8 -9 -93 0
-8 -9 93 0
11 14 94 0
-11 14 -94 0
11 -14 -94 0
-11 -14 94 0
-16 17 95 0
16 17 -95 0
-16 -17 -95 0
16 -17 95 0
-19 -21 96 0
19 -21 -96 0
-19 21 -96 0
19 21 96 0
-22 -23 97 0
22 -23 -97 0
-22 23 -97 0
22 23 97 0
-24 28 98 0
24 28 -98 0
-24 -28 -98 0
24 -28 98 0
-32 34 99 0
32 34 -99 0
-32 -34 -99 0
32 -34 99 0
-35 -36 100 0
35 -36 -100 0
-35 36 -100 0
35 36 100 0
-37 -38 101 0
37 -38 -101 0
-37 38 -101 0
37 38 101 0
-40 -43 102 0
40 -43 -102 0
-40 43 -102 0
40 43 102 0
44 -46 103 0
-44 -46 -103 0
44 46 -103 0
-44 46 103 0
92 -93 104 0
-92 -93 -104 0
92 93 -104 0
-92 93 104 0
94 -95 105 0
-94 -95 -105 0
94 95 -105 0
-94 95 105 0
96 -97 106 0
-96 -97 -106 0
96 97 -106 0
-96 97 106 0
98 -99 107 0
-98 -99 -107 0
98 99 -107 0
-98 99 107 0
100 -101 108 0
-100 -101 -108 0
100 101 -108 0
-100 101 108 0
102 -103 109 0
-102 -103 -109 0
102 103 -109 0
-102 103 109 0
104 -105 110 0
-104 -105 -110 0
104 105 -110 0
-104 105 110 0
106 -107 111 0
-106 -107 -111 0
106 107 -111 0
-106 107 111 0
108 -109 112 0
-108 -109 -112 0
108 109 -112 0
-108 109 112 0
-110 -111 112 0
110 -111 -112 0
-110 111 -112 0
110 111 112 0
-1 4 113 0
1 4 -113 0
-1 -4 -113 0
1 -4 113 0
7 8 114 0
-7 8 -114 0
7 -8 -114 0
-7 -8 114 0
-10 -11 115 0
10 -11 -115 0
-10 11 -115 0
10 11 115 0
-12 -14 116 0
12 -14 -116 0
-12 14 -116 0
12 14 116 0
20 21 117 0
-20 21 -117 0
20 -21 -117 0
-20 -21 117 0
-22 -23 118 0
22 -23 -118 0
-22 23 -118 0
22 23 118 0
26 -29 119 0
-26 -29 -119 0
26 29 -119 0
-26 29 119 0
-31 32 120 0
31 32 -120 0
-31 -32 -120 0
31 -32 120 0
-33 34 121 0
33 34 -121 0
-33 -34 -121 0
33 -34 121 0
-35 37 122 0
35 37 -122 0
-35 -37 -122 0
35 -37 122 0
-38 39 123 0
38 39 -123 0
-38 -39 -123 0
38 -39 123 0
-40 41 124 0
40 41 -124 0
-40 -41 -124 0
40 -41 124 0
-45 -46 125 0
45 -46 -125 0
-45 46 -125 0
45 46 125 0
112 -113 126 0
-112 -113 -126 0
112 113 -126 0
-112 113 126 0
114 -115 127 0
-114 -115 -127 0
114 115 -127 0
-114 115 127 0
116 -117 128 0
-116 -117 -128 0
116 117 -128 0
-116 117 128 0
118 -119 129 0
-118 -119 -129 0
118 119 -129 0
-118 119 129 0
120 -121 130 0
-120 -121 -130 0
120 121 -130 0
-120 121 130 0
122 -123 131 0
-122 -123 -131 0
122 123 -131 0
-122 123 131 0
124 -125 132 0
-124 -125 -132 0
124 125 -132 0
-124 125 132 0
126 -127 133 0
-126 -127 -133 0
126 127 -133 0
-126 127 133 0
128 -129 134 0
-128 -129 -134 0
128 129 -134 0
-128 129 134 0
130 -131 135 0
-130 -131 -135 0
130 131 -135 0
-130 131 135 0
132 -133 136 0
-132 -133 -136 0
132 133 -136 0
-132 133 136 0
134 -135 137 0
-134 -135 -137 0
134 135 -137 0
-134 135 137 0
136 137 0
-136 -137 0
1 2 138 0
-1 2 -138 0
1 -2 -138 0
-1 -2 138 0
-3 4 139 0
3 4 -139 0
-3 -4 -139 0
3 -4 139 0
5 -7 140 0
-5 -7 -140 0
5 7 -140 0
-5 7 140 0
8 9 141 0
-8 9 -141 0
8 -9 -141 0
-8 -9 141 0
10 11 142 0
-10 11 -142 0
10 -11 -142 0
-10 -11 142 0
-12 -17 143 0
12 -17 -143 0
-12 17 -143 0
12 17 143 0
19 -20 144 0
-19 -20 -144 0
19 20 -144 0
-19 20 144 0
21 27 145 0
-21 27 -145 0
21 -27 -145 0
-21 -27 145 0
-28 31 146 0
28 31 -146 0
-28 -31 -146 0
28 -31 146 0
34 35 147 0
-34 35 -147 0
34 -35 -147 0
-34 -35 147 0
36 37 148 0
-36 37 -148 0
36 -37 -148 0
-36 -37 148 0
39 40 149 0
-39 40 -149 0
39 -40 -149 0
-39 -40 149 0
42 -43 150 0
-42 -43 -150 0
42 43 -150 0
-42 43 150 0
46 47 151 0
-46 47 -151 0
46 -47 -151 0
-46 -47 151 0
137 -138 152 0
-137 -138 -152 0
137 138 -152 0
-137 138 152 0
139 -140 153 0
-139 -140 -153 0
139 140 -153 0
-139 140 153 0
141 -142 154 0
-141 -142 -154 0
141 142 -154 0
-141 142 154 0
143 -144 155 0
-143 -144 -155 0
143 144 -155 0
-143 144 155 0
145 -146 156 0
-145 -146 -156 0
145 146 -156 0
-145 146 156 0
147 -148 157 0
-147 -148 -157 0
147 148 -157 0
-147 148 157 0
149 -150 158 0
-149 -150 -158 0
149 150 -158 0
-149 150 158 0
151 -152 159 0
-151 -152 -159 0
151 152 -159 0
-151 152 159 0
153 -154 160 0
-153 -154 -160 0
153 154 -160 0
-153 154 160 0
155 -156 161 0
-155 -156 -161 0
155 156 -161 0
-155 156 161 0
157 -158 162 0
-157 -158 -162 0
157 158 -162 0
-157 158 162 0
159 -160 163 0
-159 -160 -163 0
159 160 -163 0
-159 160 163 0
161 -162 164 0
-161 -162 -164 0
161 162 -164 0
-161 162 164 0
163 164 0
-163 -164 0
1 -2 165 0
-1 -2 -165 0
1 2 -165 0
-1 2 165 0
6 7 166 0
-6 7 -166 0
6 -7 -166 0
-6 -7 166 0
-10 11 167 0
10 11 -167 0
-10 -11 -167 0
10 -11 167 0
-13 -21 168 0
13 -21 -168 0
-13 21 -168 0
13 21 168 0
-22 23 169 0
22 23 -169 0
-22 -23 -169 0
22 -23 169 0
24 -25 170 0
-24 -25 -170 0
24 25 -170 0
-24 25 170 0
-26 -27 171 0
26 -27 -171 0
-26 27 -171 0
26 27 171 0
-31 33 172 0
31 33 -172 0
-31 -33 -172 0
31 -33 172 0
35 36 173 0
-35 36 -173 0
35 -36 -173 0
-35 -36 173 0
-38 39 174 0
38 39 -174 0
-38 -39 -174 0
38 -39 174 0
-42 -44 175 0
42 -44 -175 0
-42 44 -175 0
42 44 175 0
45 47 176 0
-45 47 -176 0
45 -47 -176 0
-45 -47 176 0
-48 -50 177 0
48 -50 -177 0
-48 50 -177 0
48 50 177 0
165 -166 178 0
-165 -166 -178 0
165 166 -178 0
-165 166 178 0
167 -168 179 0
-167 -168 -179 0
167 168 -179 0
-167 168 179 0
169 -170 180 0
-169 -170 -180 0
169 170 -180 0
-169 170 180 0
171 -172 181 0
-171 -172 -181 0
171 172 -181 0
-171 172 181 0
173 -174 182 0
-173 -174 -182 0
173 174 -182 0
-173 174 182 0
175 -176 183 0
-175 -176 -183 0
175 176 -183 0
-175 176 183 0
177 -178 184 0
-177 -178 -184 0
177 178 -184 0
-177 178 184 0
179 -180 185 0
-179 -180 -185 0
179 180 -185 0
-179 180 185 0
181 -182 186 0
-181 -182 -186 0
181 182 -186 0
-181 182 186 0
183 -184 187 0
-183 -184 -187 0
183 184 -187 0
-183 184 187 0
185 -186 188 0
-185 -186 -188 0
185 186 -188 0
-185 186 188 0
187 188 0
-187 -188 0
-1 2 189 0
1 2 -189 0
-1 -2 -189 0
1 -2 189 0
-3 -5 190 0
3 -5 -190 0
-3 5 -190 0
3 5 190 0
-6 8 191 0
6 8 -191 0
-6 -8 -191 0
6 -8 191 0
9 -10 192 0
-9 -10 -192 0
9 10 -192 0
-9 10 192 0
11 -13 193 0
-11 -13 -193 0
11 13 -193 0
-11 13 193 0
14 15 194 0
-14 15 -194 0
14 -15 -194 0
-14 -15 194 0
22 -23 195 0
-22 -23 -195 0
22 23 -195 0
-22 23 195 0
-24 -26 196 0
24 -26 -196 0
-24 26 -196 0
24 26 196 0
28 -29 197 0
-28 -29 -197 0
28 29 -197 0
-28 29 197 0
31 35 198 0
-31 35 -198 0
31 -35 -198 0
-31 -35 198 0
36 -39 199 0
-36 -39 -199 0
36 39 -199 0
-36 39 199 0
-40 41 200 0
40 41 -200 0
-40 -41 -200 0
40 -41 200 0
44 -46 201 0
-44 -46 -201 0
44 46 -201 0
-44 46 201 0
188 -189 202 0
-188 -189 -202 0
188 189 -202 0
-188 189 202 0
190 -191 203 0
-190 -191 -203 0
190 191 -203 0
-190 191 203 0
192 -193 204 0
-192 -193 -204 0
192 193 -204 0
-192 193 204 0
194 -195 205 0
-194 -195 -205 0
194 195 -205 0
-194 195 205 0
196 -197 206 0
-196 -197 -206 0
196 197 -206 0
-196 197 206 0
198 -199 207 0
-198 -199 -207 0
198 199 -207 0
-198 199 207 0
200 -201 208 0
-200 -201 -208 0
200 201 -208 0
-200 201 208 0
202 -203 209 0
-202 -203 -209 0
202 203 -209 0
-202 203 209 0
204 -205 210 0
-204 -205 -210 0
204 205 -210 0
-204 205 210 0
206 -207 211 0
-206 -207 -211 0
206 207 -211 0
-206 207 211 0
208 -209 212 0
-208 -209 -212 0
208 209 -212 0
-208 209 212 0
210 -211 213 0
-210 -211 -213 0
210 211 -213 0
-210 211 213 0
212 213 0
-212 -213 0
-1 -2 214 0
1 -2 -214 0
-1 2 -214 0
1 2 214 0
6 -7 215 0
-6 -7 -215 0
6 7 -215 0
-6 7 215 0
-9 -10 216 0
9 -10 -216 0
-9 10 -216 0
9 10 216 0
-11 12 217 0
11 12 -217 0
-11 -12 -217 0
11 -12 217 0
-15 -16 218 0
15 -16 -218 0
-15 16 -218 0
15 16 218 0
-17 20 219 0
17 20 -219 0
-17 -20 -219 0
17 -20 219 0
21 -22 220 0
-21 -22 -220 0
21 22 -220 0
-21 22 220 0
-24 26 221 0
24 26 -221 0
-24 -26 -221 0
24 -26 221 0
27 28 222 0
-27 28 -222 0
27 -28 -222 0
-27 -28 222 0
-31 34 223 0
31 34 -223 0
-31 -34 -223 0
31 -34 223 0
35 39 224 0
-35 39 -224 0
35 -39 -224 0
-35 -39 224 0
-40 -41 225 0
40 -41 -225 0
-40 41 -225 0
40 41 225 0
-42 -44 226 0
42 -44 -226 0
-42 44 -226 0
42 44 226 0
-45 49 227 0
45 49 -227 0
-45 -49 -227 0
45 -49 227 0
213 -214 228 0
-213 -214 -228 0
213 214 -228 0
-213 214 228 0
215 -216 229 0
-215 -216 -229 0
215 216 -229 0
-215 216 229 0
217 -218 230 0
-217 -218 -230 0
217 218 -230 0
-217 218 230 0
219 -220 231 0
-219 -220 -231 0
219 220 -231 0
-219 220 231 0
221 -222 232 0
-221 -222 -232 0
221 222 -232 0
-221 222 232 0
223 -224 233 0
-223 -224 -233 0
223 224 -233 0
-223 224 233 0
225 -226 234 0
-225 -226 -234 0
225 226 -234 0
-225 226 234 0
227 -228 235 0
-227 -228 -235 0
227 228 -235 0
-227 228 235 0
229 -230 236 0
-229 -230 -236 0
229 230 -236 0
-229 230 236 0
231 -232 237 0
-231 -232 -237 0
231 232 -237 0
-231 232 237 0
233 -234 238 0
-233 -234 -238 0
233 234 -238 0
-233 234 238 0
235 -236 239 0
-235 -236 -239 0
235 236 -239 0
-235 236 239 0
237 -238 240 0
-237 -238 -240 0
237 238 -240 0
-237 238 240 0
239 240 0
-239 -240 0
-1 -6 241 0
1 -6 -241 0
-1 6 -241 0
1 6 241 0
7 -10 242 0
-7 -10 -242 0
7 10 -242 0
-7 10 242 0
13 -14 243 0
-13 -14 -243 0
13 14 -243 0
-13 14 243 0
-17 18 244 0
17 18 -244 0
-17 -18 -244 0
17 -18 244 0
-24 -25 245 0
24 -25 -245 0
-24 25 -245 0
24 25 245 0
28 -30 246 0
-28 -30 -246 0
28 30 -246 0
-28 30 246 0
31 -32 247 0
-31 -32 -247 0
31 32 -247 0
-31 32 247 0
-34 -36 248 0
34 -36 -248 0
-34 36 -248 0
34 36 248 0
38 -39 249 0
-38 -39 -249 0
38 39 -249 0
-38 39 249 0
-40 41 250 0
40 41 -250 0
-40 -41 -250 0
40 -41 250 0
42 -44 251 0
-42 -44 -251 0
42 44 -251 0
-42 44 251 0
240 -241 252 0
-240 -241 -252 0
240 241 -252 0
-240 241 252 0
242 -243 253 0
-242 -243 -253 0
242 243 -253 0
-242 243 253 0
244 -245 254 0
-244 -245 -254 0
244 245 -254 0
-244 245 254 0
246 -247 255 0
-246 -247 -255 0
246 247 -255 0
-246 247 255 0
248 -249 256 0
-248 -249 -256 0
248 249 -256 0
-248 249 256 0
250 -251 257 0
-250 -251 -257 0
250 251 -257 0
-250 251 257 0
252 -253 258 0
-252 -253 -258 0
252 253 -258 0
-252 253 258 0
254 -255 259 0
-254 -255 -259 0
254 255 -259 0
-254 255 259 0
256 -257 260 0
-256 -257 -260 0
256 257 -260 0
-256 257 260 0
-258 -259 260 0
258 -259 -260 0
-258 259 -260 0
258 259 260 0
-4 -7 261 0
4 -7 -261 0
-4 7 -261 0
4 7 261 0
8 9 262 0
-8 9 -262 0
8 -9 -262 0
-8 -9 262 0
-10 -15 263 0
10 -15 -263 0
-10 15 -263 0
10 15 263 0
16 18 264 0
-16 18 -264 0
16 -18 -264 0
-16 -18 264 0
20 21 265 0
-20 21 -265 0
20 -21 -265 0
-20 -21 265 0
26 -27 266 0
-26 -27 -266 0
26 27 -266 0
-26 27 266 0
-30 -33 267 0
30 -33 -267 0
-30 33 -267 0
30 33 267 0
-36 -38 268 0
36 -38 -268 0
-36 38 -268 0
36 38 268 0
39 40 269 0
-39 40 -269 0
39 -40 -269 0
-39 -40 269 0
-41 44 270 0
41 44 -270 0
-41 -44 -270 0
41 -44 270 0
-45 47 271 0
45 47 -271 0
-45 -47 -271 0
45 -47 271 0
-49 -50 272 0
49 -50 -272 0
-49 50 -272 0
49 50 272 0
261 -262 273 0
-261 -262 -273 0
261 262 -273 0
-261 262 273 0
263 -264 274 0
-263 -264 -274 0
263 264 -274 0
-263 264 274 0
265 -266 275 0
-265 -266 -275 0
265 266 -275 0
-265 266 275 0
267 -268 276 0
-267 -268 -276 0
267 268 -276 0
-267 268 276 0
269 -270 277 0
-269 -270 -277 0
269 270 -277 0
-269 270 277 0
271 -272 278 0
-271 -272 -278 0
271 272 -278 0
-271 272 278 0
273 -274 279 0
-273 -274 -279 0
273 274 -279 0
-273 274 279 0
275 -276 280 0
-275 -276 -280 0
275 276 -280 0
-275 276 280 0
277 -278 281 0
-277 -278 -281 0
277 278 -281 0
-277 278 281 0
-279 -280 281 0
279 -280 -281 0
-279 280 -281 0
279 280 281 0
-4 -5 282 0
4 -5 -282 0
-4 5 -282 0
4 5 282 0
-6 7 283 0
6 7 -283 0
-6 -7 -283 0
6 -7 283 0
8 9 284 0
-8 9 -284 0
8 -9 -284 0
-8 -9 284 0
-10 -11 285 0
10 -11 -285 0
-10 11 -285 0
10 11 285 0
12 -13 286 0
-12 -13 -286 0
12 13 -286 0
-12 13 286 0
-14 15 287 0
14 15 -287 0
-14 -15 -287 0
14 -15 287 0
18 -19 288 0
-18 -19 -288 0
18 19 -288 0
-18 19 288 0
20 21 289 0
-20 21 -289 0
20 -21 -289 0
-20 -21 289 0
23 26 290 0
-23 26 -290 0
23 -26 -290 0
-23 -26 290 0
28 -30 291 0
-28 -30 -291 0
28 30 -291 0
-28 30 291 0
31 32 292 0
-31 32 -292 0
31 -32 -292 0
-31 -32 292 0
-34 -35 293 0
34 -35 -293 0
-34 35 -293 0
34 35 293 0
-36 39 294 0
36 39 -294 0
-36 -39 -294 0
36 -39 294 0
-42 44 295 0
42 44 -295 0
-42 -44 -295 0
42 -44 295 0
-45 50 296 0
45 50 -296 0
-45 -50 -296 0
45 -50 296 0
282 -283 297 0
-282 -283 -297 0
282 283 -297 0
-282 283 297 0
284 -285 298 0
-284 -285 -298 0
284 285 -298 0
-284 285 298 0
286 -287 299 0
-286 -287 -299 0
286 287 -299 0
-286 287 299 0
288 -289 300 0
-288 -289 -300 0
288 289 -300 0
-288 289 300 0
290 -291 301 0
-290 -291 -301 0
290 291 -301 0
-290 291 301 0
292 -293 302 0
-292 -293 -302 0
292 293 -302 0
-292 293 302 0
294 -295 303 0
-294 -295 -303 0
294 295 -303 0
-294 295 303 0
296 -297 304 0
-296 -297 -304 0
296 297 -304 0
-296 297 304 0
298 -299 305 0
-298 -299 -305 0
298 299 -305 0
-298 299 305 0
300 -301 306 0
-300 -301 -306 0
300 301 -306 0
-300 301 306 0
302 -303 307 0
-302 -303 -307 0
302 303 -307 0
-302 303 307 0
304 -305 308 0
-304 -305 -308 0
304 305 -308 0
-304 305 308 0
306 -307 309 0
-306 -307 -309 0
306 307 -309 0
-306 307 309 0
308 309 0
-308 -309 0
-6 8 310 0
6 8 -310 0
-6 -8 -310 0
6 -8 310 0
-9 11 311 0
9 11 -311 0
-9 -11 -311 0
9 -11 311 0
-12 13 312 0
12 13 -312 0
-12 -13 -312 0
12 -13 312 0
14 18 313 0
-14 18 -313 0
14 -18 -313 0
-14 -18 313 0
20 -21 314 0
-20 -21 -314 0
20 21 -314 0
-20 21 314 0
25 27 315 0
-25 27 -315 0
25 -27 -315 0
-25 -27 315 0
28 29 316 0
-28 29 -316 0
28 -29 -316 0
-28 -29 316 0
30 33 317 0
-30 33 -317 0
30 -33 -317 0
-30 -33 317 0
36 37 318 0
-36 37 -318 0
36 -37 -318 0
-36 -37 318 0
38 -39 319 0
-38 -39 -319 0
38 39 -319 0
-38 39 319 0
-41 -44 320 0
41 -44 -320 0
-41 44 -320 0
41 44 320 0
48 -49 321 0
-48 -49 -321 0
48 49 -321 0
-48 49 321 0
309 -310 322 0
-309 -310 -322 0
309 310 -322 0
-309 310 322 0
311 -312 323 0
-311 -312 -323 0
311 312 -323 0
-311 312 323 0
313 -314 324 0
-313 -314 -324 0
313 314 -324 0
-313 314 324 0
315 -316 325 0
-315 -316 -325 0
315 316 -325 0
-315 316 325 0
317 -318 326 0
-317 -318 -326 0
317 318 -326 0
-317 318 326 0
319 -320 327 0
-319 -320 -327 0
319 320 -327 0
-319 320 327 0
321 -322 328 0
-321 -322 -328 0
321 322 -328 0
-321 322 328 0
323 -324 329 0
-323 -324 -329 0
323 324 -329 0
-323 324 329 0
325 -326 330 0
-325 -326 -330 0
325 326 -330 0
-325 326 330 0
327 -328 331 0
-327 -328 -331 0
327 328 -331 0
-327 328 331 0
329 -330 332 0
-329 -330 -332 0
329 330 -332 0
-329 330 332 0
331 332 0
-331 -332 0
2 3 333 0
-2 3 -333 0
2 -3 -333 0
-2 -3 333 0
4 -5 334 0
-4 -5 -334 0
4 5 -334 0
-4 5 334 0
6 7 335 0
-6 7 -335 0
6 -7 -335 0
-6 -7 335 0
9 -12 336 0
-9 -12 -336 0
9 12 -336 0
-9 12 336 0
14 -19 337 0
-14 -19 -337 0
14 19 -337 0
-14 19 337 0
-20 -21 338 0
20 -21 -338 0
-20 21 -338 0
20 21 338 0
-23 29 339 0
23 29 -339 0
-23 -29 -339 0
23 -29 339 0
-31 -34 340 0
31 -34 -340 0
-31 34 -340 0
31 34 340 0
-36 37 341 0
36 37 -341 0
-36 -37 -341 0
36 -37 341 0
-38 -46 342 0
38 -46 -342 0
-38 46 -342 0
38 46 342 0
48 49 343 0
-48 49 -343 0
48 -49 -343 0
-48 -49 343 0
333 -334 344 0
-333 -334 -344 0
333 334 -344 0
-333 334 344 0
335 -336 345 0
-335 -336 -345 0
335 336 -345 0
-335 336 345 0
337 -338 346 0
-337 -338 -346 0
337 338 -346 0
-337 338 346 0
339 -340 347 0
-339 -340 -347 0
339 340 -347 0
-339 340 347 0
341 -342 348 0
-341 -342 -348 0
341 342 -348 0
-341 342 348 0
343 -344 349 0
-343 -344 -349 0
343 344 -349 0
-343 344 349 0
345 -346 350 0
-345 -346 -350 0
345 346 -350 0
-345 346 350 0
347 -348 351 0
-347 -348 -351 0
347 348 -351 0
-347 348 351 0
-349 -350 351 0
349 -350 -351 0
-349 350 -351 0
349 350 351 0
-4 -5 352 0
4 -5 -352 0
-4 5 -352 0
4 5 352 0
-6 -10 353 0
6 -10 -353 0
-6 10 -353 0
6 10 353 0
-12 13 354 0
12 13 -354 0
-12 -13 -354 0
12 -13 354 0
-14 16 355 0
14 16 -355 0
-14 -16 -355 0
14 -16 355 0
-26 27 356 0
26 27 -356 0
-26 -27 -356 0
26 -27 356 0
29 -31 357 0
-29 -31 -357 0
29 31 -357 0
-29 31 357 0
-32 -35 358 0
32 -35 -358 0
-32 35 -358 0
32 35 358 0
38 -44 359 0
-38 -44 -359 0
38 44 -359 0
-38 44 359 0
45 46 360 0
-45 46 -360 0
45 -46 -360 0
-45 -46 360 0
49 50 361 0
-49 50 -361 0
49 -50 -361 0
-49 -50 361 0
352 -353 362 0
-352 -353 -362 0
352 353 -362 0
-352 353 362 0
354 -355 363 0
-354 -355 -363 0
354 355 -363 0
-354 355 363 0
356 -357 364 0
-356 -357 -364 0
356 357 -364 0
-356 357 364 0
358 -359 365 0
-358 -359 -365 0
358 359 -365 0
-358 359 365 0
360 -361 366 0
-360 -361 -366 0
360 361 -366 0
-360 361 366 0
362 -363 367 0
-362 -363 -367 0
362 363 -367 0
-362 363 367 0
364 -365 368 0
-364 -365 -368 0
364 365 -368 0
-364 365 368 0
-366 -367 368 0
366 -367 -368 0
-366 367 -368 0
366 367 368 0
1 -2 369 0
-1 -2 -369 0
1 2 -369 0
-1 2 369 0
-7 8 370 0
7 8 -370 0
-7 -8 -370 0
7 -8 370 0
9 -10 371 0
-9 -10 -371 0
9 10 -371 0
-9 10 371 0
-12 -15 372 0
12 -15 -372 0
-12 15 -372 0
12 15 372 0
-16 20 373 0
16 20 -373 0
-16 -20 -373 0
16 -20 373 0
21 24 374 0
-21 24 -374 0
21 -24 -374 0
-21 -24 374 0
-25 32 375 0
25 32 -375 0
-25 -32 -375 0
25 -32 375 0
-35 -38 376 0
35 -38 -376 0
-35 38 -376 0
35 38 376 0
-39 -40 377 0
39 -40 -377 0
-39 40 -377 0
39 40 377 0
-42 -43 378 0
42 -43 -378 0
-42 43 -378 0
42 43 378 0
48 -49 379 0
-48 -49 -379 0
48 49 -379 0
-48 49 379 0
369 -370 380 0
-369 -370 -380 0
369 370 -380 0
-369 370 380 0
371 -372 381 0
-371 -372 -381 0
371 372 -381 0
-371 372 381 0
373 -374 382 0
-373 -374 -382 0
373 374 -382 0
-373 374 382 0
375 -376 383 0
-375 -376 -383 0
375 376 -383 0
-375 376 383 0
377 -378 384 0
-377 -378 -384 0
377 378 -384 0
-377 378 384 0
379 -380 385 0
-379 -380 -385 0
379 380 -385 0
-379 380 385 0
381 -382 386 0
-381 -382 -386 0
381 382 -386 0
-381 382 386 0
383 -384 387 0
-383 -384 -387 0
383 384 -387 0
-383 384 387 0
-385 -386 387 0
385 -386 -387 0
-385 386 -387 0
385 386 387 0
2 3 388 0
-2 3 -388 0
2 -3 -388 0
-2 -3 388 0
5 -7 389 0
-5 -7 -389 0
5 7 -389 0
-5 7 389 0
-8 10 390 0
8 10 -390 0
-8 -10 -390 0
8 -10 390 0
11 -12 391 0
-11 -12 -391 0
11 12 -391 0
-11 12 391 0
-17 18 392 0
17 18 -392 0
-17 -18 -392 0
17 -18 392 0
-20 -21 393 0
20 -21 -393 0
-20 21 -393 0
20 21 393 0
-22 -23 394 0
22 -23 -394 0
-22 23 -394 0
22 23 394 0
26 27 395 0
-26 27 -395 0
26 -27 -395 0
-26 -27 395 0
28 33 396 0
-28 33 -396 0
28 -33 -396 0
-28 -33 396 0
35 36 397 0
-35 36 -397 0
35 -36 -397 0
-35 -36 397 0
37 -38 398 0
-37 -38 -398 0
37 38 -398 0
-37 38 398 0
39 44 399 0
-39 44 -399 0
39 -44 -399 0
-39 -44 399 0
-46 48 400 0
46 48 -400 0
-46 -48 -400 0
46 -48 400 0
-49 -50 401 0
49 -50 -401 0
-49 50 -401 0
49 50 401 0
388 -389 402 0
-388 -389 -402 0
388 389 -402 0
-388 389 402 0
390 -391 403 0
-390 -391 -403 0
390 391 -403 0
-390 391 403 0
392 -393 404 0
-392 -393 -404 0
392 393 -404 0
-392 393 404 0
394 -395 405 0
-394 -395 -405 0
394 395 -405 0
-394 395 405 0
396 -397 406 0
-396 -397 -406 0
396 397 -406 0
-396 397 406 0
398 -399 407 0
-398 -399 -407 0
398 399 -407 0
-398 399 407 0
400 -401 408 0
-400 -401 -408 0
400 401 -408 0
-400 401 408 0
402 -403 409 0
-402 -403 -409 0
402 403 -409 0
-402 403 409 0
404 -405 410 0
-404 -405 -410 0
404 405 -410 0
-404 405 410 0
406 -407 411 0
-406 -407 -411 0
406 407 -411 0
-406 407 411 0
408 -409 412 0
-408 -409 -412 0
408 409 -412 0
-408 409 412 0
410 -411 413 0
-410 -411 -413 0
410 411 -413 0
-410 411 413 0
412 413 0
-412 -413 0
1 -2 414 0
-1 -2 -414 0
1 2 -414 0
-1 2 414 0
-4 7 415 0
4 7 -415 0
-4 -7 -415 0
4 -7 415 0
11 -12 416 0
-11 -12 -416 0
11 12 -416 0
-11 12 416 0
-14 -16 417 0
14 -16 -417 0
-14 16 -417 0
14 16 417 0
17 18 418 0
-17 18 -418 0
17 -18 -418 0
-17 -18 418 0
19 -20 419 0
-19 -20 -419 0
19 20 -419 0
-19 20 419 0
-24 -25 420 0
24 -25 -420 0
-24 25 -420 0
24 25 420 0
-36 37 421 0
36 37 -421 0
-36 -37 -421 0
36 -37 421 0
-39 -42 422 0
39 -42 -422 0
-39 42 -422 0
39 42 422 0
-43 49 423 0
43 49 -423 0
-43 -49 -423 0
43 -49 423 0
413 -414 424 0
-413 -414 -424 0
413 414 -424 0
-413 414 424 0
415 -416 425 0
-415 -416 -425 0
415 416 -425 0
-415 416 425 0
417 -418 426 0
-417 -418 -426 0
417 418 -426 0
-417 418 426 0
419 -420 427 0
-419 -420 -427 0
419 420 -427 0
-419 420 427 0
421 -422 428 0
-421 -422 -428 0
421 422 -428 0
-421 422 428 0
423 -424 429 0
-423 -424 -429 0
423 424 -429 0
-423 424 429 0
425 -426 430 0
-425 -426 -430 0
425 426 -430 0
-425 426 430 0
427 -428 431 0
-427 -428 -431 0
427 428 -431 0
-427 428 431 0
-429 -430 431 0
429 -430 -431 0
-429 430 -431 0
429 430 431 0
-1 -2 432 0
1 -2 -432 0
-1 2 -432 0
1 2 432 0
3 -4 433 0
-3 -4 -433 0
3 4 -433 0
-3 4 433 0
-6 -7 434 0
6 -7 -434 0
-6 7 -434 0
6 7 434 0
-10 11 435 0
10 11 -435 0
-10 -11 -435 0
10 -11 435 0
13 14 436 0
-13 14 -436 0
13 -14 -436 0
-13 -14 436 0
-15 17 437 0
15 17 -437 0
-15 -17 -437 0
15 -17 437 0
19 -20 438 0
-19 -20 -438 0
19 20 -438 0
-19 20 438 0
-21 -22 439 0
21 -22 -439 0
-21 22 -439 0
21 22 439 0
27 28 440 0
-27 28 -440 0
27 -28 -440 0
-27 -28 440 0
30 -32 441 0
-30 -32 -441 0
30 32 -441 0
-30 32 441 0
-33 35 442 0
33 35 -442 0
-33 -35 -442 0
33 -35 442 0
37 40 443 0
-37 40 -443 0
37 -40 -443 0
-37 -40 443 0
-41 -43 444 0
41 -43 -444 0
-41 43 -444 0
41 43 444 0
44 -45 445 0
-44 -45 -445 0
44 45 -445 0
-44 45 445 0
-47 -48 446 0
47 -48 -446 0
-47 48 -446 0
47 48 446 0
-49 50 447 0
49 50 -447 0
-49 -50 -447 0
49 -50 447 0
432 -433 448 0
-432 -433 -448 0
432 433 -448 0
-432 433 448 0
434 -435 449 0
-434 -435 -449 0
434 435 -449 0
-434 435 449 0
436 -437 450 0
-436 -437 -450 0
436 437 -450 0
-436 437 450 0
438 -439 451 0
-438 -439 -451 0
438 439 -451 0
-438 439 451 0
440 -441 452 0
-440 -441 -452 0
440 441 -452 0
-440 441 452 0
442 -443 453 0
-442 -443 -453 0
442 443 -453 0
-442 443 453 0
444 -445 454 0
-444 -445 -454 0
444 445 -454 0
-444 445 454 0
446 -447 455 0
-446 -447 -455 0
446 447 -455 0
-446 447 455 0
448 -449 456 0
-448 -449 -456 0
448 449 -456 0
-448 449 456 0
450 -451 457 0
-450 -451 -457 0
450 451 -457 0
-450 451 457 0
452 -453 458 0
-452 -453 -458 0
452 453 -458 0
-452 453 458 0
454 -455 459 0
-454 -455 -459 0
454 455 -459 0
-454 455 459 0
456 -457 460 0
-456 -457 -460 0
456 457 -460 0
-456 457 460 0
458 -459 461 0
-458 -459 -461 0
458 459 -461 0
-458 459 461 0
460 461 0
-460 -461 0
1 3 462 0
-1 3 -462 0
1 -3 -462 0
-1 -3 462 0
-6 -10 463 0
6 -10 -463 0
-6 10 -463 0
6 10 463 0
13 15 464 0
-13 15 -464 0
13 -15 -464 0
-13 -15 464 0
17 -18 465 0
-17 -18 -465 0
17 18 -465 0
-17 18 465 0
-20 24 466 0
20 24 -466 0
-20 -24 -466 0
20 -24 466 0
-25 -26 467 0
25 -26 -467 0
-25 26 -467 0
25 26 467 0
29 -31 468 0
-29 -31 -468 0
29 31 -468 0
-29 31 468 0
33 36 469 0
-33 36 -469 0
33 -36 -469 0
-33 -36 469 0
-37 -38 470 0
37 -38 -470 0
-37 38 -470 0
37 38 470 0
-39 -40 471 0
39 -40 -471 0
-39 40 -471 0
39 40 471 0
-42 43 472 0
42 43 -472 0
-42 -43 -472 0
42 -43 472 0
-49 50 473 0
49 50 -473 0
-49 -50 -473 0
49 -50 473 0
462 -463 474 0
-462 -463 -474 0
462 463 -474 0
-462 463 474 0
464 -465 475 0
-464 -465 -475 0
464 465 -475 0
-464 465 475 0
466 -467 476 0
-466 -467 -476 0
466 467 -476 0
-466 467 476 0
468 -469 477 0
-468 -469 -477 0
468 469 -477 0
-468 469 477 0
470 -471 478 0
-470 -471 -478 0
470 471 -478 0
-470 471 478 0
472 -473 479 0
-472 -473 -479 0
472 473 -479 0
-472 473 479 0
474 -475 480 0
-474 -475 -480 0
474 475 -480 0
-474 475 480 0
476 -477 481 0
-476 -477 -481 0
476 477 -481 0
-476 477 481 0
478 -479 482 0
-478 -479 -482 0
478 479 -482 0
-478 479 482 0
-480 -481 482 0
480 -481 -482 0
-480 481 -482 0
480 481 482 0
-1 -3 483 0
1 -3 -483 0
-1 3 -483 0
1 3 483 0
-4 -7 484 0
4 -7 -484 0
-4 7 -484 0
4 7 484 0
-9 -14 485 0
9 -14 -485 0
-9 14 -485 0
9 14 485 0
16 -18 486 0
-16 -18 -486 0
16 18 -486 0
-16 18 486 0
-19 -21 487 0
19 -21 -487 0
-19 21 -487 0
19 21 487 0
22 23 488 0
-22 23 -488 0
22 -23 -488 0
-22 -23 488 0
-24 26 489 0
24 26 -489 0
-24 -26 -489 0
24 -26 489 0
-27 -28 490 0
27 -28 -490 0
-27 28 -490 0
27 28 490 0
30 -33 491 0
-30 -33 -491 0
30 33 -491 0
-30 33 491 0
-34 -36 492 0
34 -36 -492 0
-34 36 -492 0
34 36 492 0
37 -43 493 0
-37 -43 -493 0
37 43 -493 0
-37 43 493 0
44 -45 494 0
-44 -45 -494 0
44 45 -494 0
-44 45 494 0
48 -50 495 0
-48 -50 -495 0
48 50 -495 0
-48 50 495 0
483 -484 496 0
-483 -484 -496 0
483 484 -496 0
-483 484 496 0
485 -486 497 0
-485 -486 -497 0
485 486 -497 0
-485 486 497 0
487 -488 498 0
-487 -488 -498 0
487 488 -498 0
-487 488 498 0
489 -490 499 0
-489 -490 -499 0
489 490 -499 0
-489 490 499 0
491 -492 500 0
-491 -492 -500 0
491 492 -500 0
-491 492 500 0
493 -494 501 0
-493 -494 -501 0
493 494 -501 0
-493 494 501 0
495 -496 502 0
-495 -496 -502 0
495 496 -502 0
-495 496 502 0
497 -498 503 0
-497 -498 -503 0
497 498 -503 0
-497 498 503 0
499 -500 504 0
-499 -500 -504 0
499 500 -504 0
-499 500 504 0
501 -502 505 0
-501 -502 -505 0
501 502 -505 0
-501 502 505 0
503 -504 506 0
-503 -504 -506 0
503 504 -506 0
-503 504 506 0
505 506 0
-505 -506 0
